NAME          dual_singleton_inequality
ROWS
 N  COST
 L  CON1
 G  CON2
 L  CON3
COLUMNS
    x1        COST        4
    x1        CON1        3
    x1        CON2       -3
    x1        CON3        4
    x2        COST        1
    x2        CON2       -2
    x3        COST       -2
    x3        CON1       -1
    x3        CON2        5
    x3        CON3        3
    x4        COST        7
    x4        CON1       -6
    x4        CON2       -1
    x4        CON3        4
RHS
    RHS1      CON1        0
    RHS1      CON2        0
    RHS1      CON3        5
BOUNDS
 LO BND1      x1         0
 LO BND1      x2         0
 LO BND1      x3         0
 LO BND1      x4         0
ENDATA
